f: 10
a
Default variable names x1, x2 ... being created.
Default row names c1, c2 ... being created.
CPXPARAM_TimeLimit                               10800
CPXPARAM_WorkMem                                 10000
Tried aggregator 2 times.
MIP Presolve eliminated 19 rows and 0 columns.
MIP Presolve modified 9 coefficients.
Aggregator did 9 substitutions.
Reduced MIP has 200 rows, 189 columns, and 792 nonzeros.
Reduced MIP has 108 binaries, 0 generals, 0 SOSs, and 0 indicators.
Presolve time = 0.00 sec. (0.71 ticks)
Found incumbent of value 53.333333 after 0.00 sec. (1.46 ticks)
Probing time = 0.00 sec. (0.46 ticks)
Tried aggregator 1 time.
Reduced MIP has 200 rows, 189 columns, and 792 nonzeros.
Reduced MIP has 108 binaries, 0 generals, 0 SOSs, and 0 indicators.
Presolve time = 0.00 sec. (0.52 ticks)
Probing time = 0.00 sec. (0.45 ticks)
Clique table members: 27.
MIP emphasis: balance optimality and feasibility.
MIP search method: dynamic search.
Parallel mode: deterministic, using up to 16 threads.
Root relaxation solution time = 0.00 sec. (0.85 ticks)

        Nodes                                         Cuts/
   Node  Left     Objective  IInf  Best Integer    Best Bound    ItCnt     Gap

*     0+    0                           53.3333      160.0000           200.00%
      0     0      160.0000    24       53.3333      160.0000       93  200.00%
*     0+    0                          160.0000      160.0000             0.00%
      0     0        cutoff            160.0000      160.0000       93    0.00%
Elapsed time = 0.01 sec. (4.66 ticks, tree = 0.01 MB, solutions = 2)

Root node processing (before b&c):
  Real time             =    0.01 sec. (4.67 ticks)
Parallel b&c, 16 threads:
  Real time             =    0.00 sec. (0.00 ticks)
  Sync time (average)   =    0.00 sec.
  Wait time (average)   =    0.00 sec.
                          ------------
Total (root+branch&cut) =    0.01 sec. (4.67 ticks)
Premio ótimo: 160



rota 1:

	vertice	tempo	parou
	base	0	nao
	3	1.6882	sim
	7	17.5672	sim
	8	34.6446	sim
	9	54.0489	sim
	1	71.6884	sim
	4	88.2351	sim
	base	105.199	nao
rota 2:

	vertice	tempo	parou
	base	0	nao
	6	1.10581	sim
	5	18.754	sim
	2	34.8729	sim
	base	51.4076	nao

vertice		tempos visitado
0		0, 105.199, 0, 51.4076
1		71.6884
2		34.8729
3		1.6882
4		88.2351
5		18.754
6		1.10581
7		17.5672
8		34.6446
9		54.0489

premio:			160
numero de vertices:	10
tempo de protecao(min):	360
velocidade(km/h):	20
tempo de execucao:	1.73018e+09
status:			Optimal
GAP:			0
